language ESSENCE' 1.0
letting initGrid be [
    [1, 1, 1, 1, 1, 1, 2],
[3, 1, 1, 1, 2, 4, 5],
[2, 1, 6, 3, 5, 2, 6],
[6, 2, 1, 5, 6, 4, 4],
[3, 4, 6, 5, 4, 6, 3],
[6, 2, 2, 4, 3, 6, 3],
[3, 4, 6, 4, 5, 6, 5]
    ]
letting goalBlocksRemaining be 24
letting noSteps be 14
